peakDumbCharging = 14800; 
Machine = anon_enum(16); 
machineSpeed = [3700,3700,3700,3700,3700,3700,3700,3700,3700,3700,3700,3700,3700,3700,3700,3700]; 
machineLoad = [3700,3700,3700,3700,3700,3700,3700,3700,3700,3700,3700,3700,3700,3700,3700,3700]; 
Car = anon_enum(22); 
demandCar = [3640,11880,11760,25280,12280,22880,12640,5640,12880,9720,1320,5040,8280,6480,8920,10320,12600,5640,11880,6720,7240,15200]; 
arrivalCar = [77,73,67,65,62,60,59,58,55,52,51,50,49,47,46,44,42,40,40,39,37,36]; 
departureCar = [79,78,72,73,67,68,64,62,60,56,53,52,53,50,53,49,49,47,45,48,40,42]; 
